c random 3-SAT, 100 vars, ratio 4.26 (phase transition, hard)
p cnf 100 426
-42 20 -51 0
-47 75 8 0
54 9 -31 0
-16 -29 -81 0
51 -7 29 0
-19 -70 -16 0
-14 75 -74 0
-9 73 -8 0
-100 41 60 0
24 -90 -100 0
44 -94 58 0
54 -22 97 0
-86 -10 -98 0
-44 -89 45 0
-12 35 -61 0
-40 -83 74 0
50 86 45 0
15 64 -8 0
51 64 11 0
18 56 71 0
49 30 -20 0
2 63 76 0
-69 -48 -79 0
-66 80 -84 0
100 88 72 0
82 -52 8 0
15 44 77 0
13 -47 -79 0
-20 -82 33 0
15 63 60 0
96 -44 95 0
3 -27 -68 0
-98 -68 -39 0
-34 67 47 0
70 100 -65 0
-98 -25 31 0
-67 -64 -46 0
-61 -34 25 0
93 45 47 0
-44 -27 -62 0
-62 84 -45 0
50 -92 97 0
-82 -43 12 0
-52 96 11 0
-20 76 -60 0
61 -85 45 0
-93 -84 14 0
25 28 4 0
-76 -42 34 0
-95 -46 -59 0
65 -17 -69 0
100 -24 78 0
61 80 -93 0
-68 72 -62 0
32 25 36 0
4 -98 -9 0
66 -26 -89 0
-65 -32 -90 0
72 26 58 0
10 86 31 0
-16 -100 20 0
33 -18 60 0
-63 21 86 0
66 52 44 0
-47 3 44 0
43 -67 80 0
30 14 -11 0
-35 -97 -17 0
-34 -52 20 0
42 -12 36 0
-10 -35 3 0
-29 9 34 0
-71 54 -35 0
15 21 34 0
40 68 -98 0
-35 45 3 0
-65 71 25 0
-85 -84 -56 0
65 40 89 0
91 -94 -82 0
-17 -2 10 0
-8 -11 -86 0
-37 77 32 0
35 -58 -1 0
71 -42 32 0
24 1 -43 0
-26 32 -65 0
19 52 76 0
-30 -11 75 0
-92 -77 50 0
-37 93 -80 0
-66 -81 55 0
-68 -97 65 0
-88 -75 92 0
-4 -6 18 0
-58 -72 -7 0
63 34 -1 0
-69 -12 85 0
-10 34 -31 0
59 -64 49 0
-6 79 81 0
-33 -84 96 0
62 -8 -63 0
-87 63 38 0
99 -16 -71 0
3 -38 -59 0
-35 -50 27 0
-12 -19 96 0
-81 -66 36 0
63 -51 -4 0
52 39 94 0
-43 -1 42 0
-26 92 2 0
51 -50 -76 0
7 -36 -14 0
20 32 -35 0
-55 -4 -98 0
71 -27 93 0
-79 97 18 0
71 17 22 0
95 84 34 0
86 51 16 0
64 71 -29 0
55 18 71 0
12 -41 31 0
3 -96 53 0
35 44 -97 0
-17 -88 -65 0
12 -35 32 0
40 -3 -17 0
61 76 -63 0
68 60 58 0
-67 -88 -14 0
-98 59 -11 0
-30 73 5 0
33 -68 82 0
39 68 -75 0
1 2 -69 0
-83 -32 61 0
53 91 84 0
87 83 54 0
48 30 64 0
88 51 -26 0
-9 27 -64 0
30 -60 29 0
80 64 79 0
86 8 77 0
77 19 54 0
92 41 94 0
-25 -24 84 0
-86 -93 49 0
14 1 -11 0
16 72 -98 0
-56 12 -7 0
58 -25 42 0
-53 32 81 0
9 8 -33 0
-47 -35 43 0
-92 89 -41 0
77 82 9 0
-60 -100 -50 0
17 -64 24 0
-89 99 20 0
-47 77 11 0
53 -9 84 0
55 14 10 0
64 91 58 0
-87 -31 -96 0
-100 38 -36 0
26 57 32 0
75 25 42 0
-68 -30 -84 0
-14 1 61 0
48 6 -38 0
75 -25 10 0
-34 100 -86 0
80 45 28 0
-33 -5 -77 0
42 -53 87 0
5 64 -71 0
-85 71 20 0
-90 -35 53 0
-7 40 96 0
99 -47 83 0
1 -56 21 0
47 59 -99 0
-83 -51 -12 0
22 -19 -45 0
-14 -50 -63 0
-39 17 6 0
-82 -50 -12 0
-21 -82 29 0
61 24 -73 0
50 -46 -16 0
-25 -6 -72 0
-42 -16 -50 0
40 84 54 0
48 58 -65 0
63 -60 -31 0
23 61 52 0
-12 57 -65 0
-11 -94 41 0
-65 49 -84 0
-79 94 -89 0
-63 -37 22 0
45 79 -97 0
-59 -19 33 0
34 79 65 0
-52 -21 -82 0
-22 34 -15 0
-58 -72 67 0
-69 81 51 0
48 -74 19 0
-23 79 -96 0
-40 -82 -75 0
96 -5 29 0
66 47 -7 0
-3 7 -1 0
-69 -29 53 0
80 -61 21 0
20 58 -13 0
-35 52 -34 0
-45 -77 -83 0
-64 32 -22 0
52 -24 31 0
-79 71 85 0
-78 83 -65 0
66 40 -9 0
62 -92 -69 0
-60 11 -95 0
34 30 -83 0
89 -34 -92 0
88 -67 -34 0
11 -65 -2 0
-26 21 96 0
-77 -31 -49 0
86 -69 61 0
4 -56 -93 0
51 -80 75 0
-4 15 -14 0
90 -4 6 0
9 -95 6 0
-69 -86 -9 0
50 14 32 0
-97 -82 12 0
-13 17 97 0
34 3 -45 0
-48 -42 -99 0
-80 96 -4 0
-13 -45 61 0
12 74 37 0
98 97 7 0
24 -64 76 0
-21 37 28 0
82 -99 -11 0
14 81 42 0
-96 12 55 0
-34 55 -70 0
-30 -59 -17 0
-83 -5 -45 0
-58 85 71 0
99 33 -75 0
90 31 -65 0
80 20 93 0
67 -45 21 0
-94 14 22 0
19 39 94 0
-14 36 27 0
-56 -89 29 0
-19 33 78 0
-56 -90 -74 0
-86 -93 -84 0
-30 87 24 0
-81 90 13 0
92 81 21 0
-80 -53 67 0
84 -42 -100 0
-14 5 -33 0
26 -67 -45 0
92 -61 66 0
-44 53 -95 0
-51 -66 -98 0
82 8 33 0
-54 -81 90 0
-39 -95 52 0
51 -60 28 0
-82 -25 -61 0
-19 -46 -86 0
-60 38 -98 0
-46 -30 -35 0
87 -24 62 0
32 84 -39 0
11 85 47 0
-11 73 -42 0
-82 75 2 0
38 33 78 0
-100 58 45 0
-69 -22 -79 0
-86 71 -82 0
-68 -11 95 0
16 34 54 0
-8 -62 60 0
-22 70 -77 0
60 90 73 0
55 -54 -87 0
4 -3 -79 0
13 -66 62 0
92 54 -81 0
-44 -61 100 0
56 44 55 0
46 -64 -52 0
45 27 84 0
-92 -39 -17 0
-6 52 -93 0
52 39 -14 0
78 -99 -85 0
-49 -79 -19 0
88 -11 -28 0
23 13 -85 0
-84 2 48 0
91 34 39 0
-73 83 -75 0
-6 -16 -100 0
-58 -9 -2 0
-85 -20 61 0
-61 28 20 0
86 16 12 0
36 -93 73 0
-7 -47 100 0
-98 -11 38 0
33 7 -92 0
88 80 -11 0
63 -78 -8 0
61 -87 22 0
-83 21 -81 0
-58 35 97 0
84 -91 -77 0
-20 -77 40 0
-50 -88 -49 0
37 89 1 0
-98 -6 -37 0
-74 -19 -36 0
-100 -64 45 0
-49 -26 97 0
8 87 51 0
97 2 -50 0
99 -9 30 0
-67 42 62 0
12 -24 90 0
100 -67 20 0
14 48 81 0
-4 45 36 0
-73 63 -76 0
-55 -13 -58 0
33 5 44 0
7 -5 72 0
9 77 -82 0
33 41 -73 0
65 51 -24 0
93 29 23 0
71 -4 -7 0
98 62 8 0
26 -87 -96 0
14 61 42 0
49 22 -57 0
-2 -60 92 0
-29 -10 80 0
-58 -13 50 0
44 -42 30 0
29 95 -8 0
57 20 35 0
-74 38 43 0
59 -62 -15 0
86 28 72 0
-26 -47 -56 0
13 50 -38 0
38 -19 82 0
-18 -57 1 0
-47 56 -6 0
-18 -24 67 0
-11 -12 78 0
-18 -79 -86 0
-26 -2 -9 0
8 -67 -45 0
64 -12 2 0
86 -35 32 0
-21 -90 48 0
58 -67 -10 0
-42 -100 -92 0
38 -14 -94 0
69 18 -3 0
22 -14 40 0
13 90 -95 0
74 60 67 0
13 92 23 0
65 98 -36 0
-70 76 -30 0
-96 51 -22 0
-89 -54 77 0
7 100 47 0
-56 -73 42 0
-67 19 88 0
81 2 47 0
26 65 -86 0
100 -59 -82 0
-6 -5 -83 0
-81 70 -5 0
56 31 -6 0
-16 -8 -77 0
-11 60 76 0
-17 38 -53 0
-95 -70 -37 0
-84 50 -26 0
39 79 62 0
-29 -25 66 0
46 21 31 0
-28 38 8 0
45 57 85 0
-95 -98 -14 0
-20 54 44 0
79 -36 -67 0
-61 -35 81 0
-14 -1 53 0
-74 20 -54 0
-15 49 58 0
-46 51 68 0
