c random 3-SAT, 150 vars, ratio 4.26 (phase transition, harder)
p cnf 150 639
116 -144 120 0
132 122 48 0
-11 -102 116 0
4 136 17 0
8 -119 -84 0
-76 128 2 0
142 22 66 0
18 -145 28 0
5 -1 55 0
-102 108 -19 0
87 -23 -80 0
-31 35 64 0
125 -46 -144 0
34 108 99 0
70 78 -6 0
-148 26 11 0
85 76 -99 0
63 4 -95 0
-124 148 35 0
59 -64 -49 0
100 124 21 0
66 -62 -101 0
-76 -134 45 0
123 -144 19 0
5 18 69 0
-73 95 136 0
-116 85 134 0
-5 -122 92 0
-20 124 -18 0
20 116 -140 0
34 88 91 0
-107 -8 128 0
150 -4 -19 0
-107 -85 100 0
-119 -139 22 0
23 -124 6 0
125 66 -3 0
-133 44 -88 0
84 104 -65 0
52 -55 99 0
-35 -128 -90 0
71 44 29 0
106 98 -134 0
-116 83 -20 0
72 -147 91 0
35 -104 117 0
37 -13 -30 0
95 20 51 0
-3 121 137 0
-89 -139 134 0
-58 -23 106 0
117 -51 -2 0
-88 119 -84 0
-32 -55 -63 0
-138 -83 68 0
22 10 113 0
8 56 -17 0
-36 -121 -39 0
-113 127 149 0
-135 -144 75 0
132 144 -66 0
-54 -78 -37 0
52 106 138 0
-138 -12 -133 0
-32 126 -24 0
106 104 69 0
122 135 82 0
67 34 6 0
73 83 91 0
-150 -32 -131 0
-112 -6 -97 0
-138 -53 -137 0
-35 60 89 0
50 56 -25 0
67 -100 -25 0
-33 -52 104 0
146 -92 -93 0
129 49 -19 0
132 146 124 0
-41 73 -25 0
20 25 84 0
-54 96 4 0
-105 117 93 0
-43 25 132 0
-104 -146 -49 0
-67 -72 -30 0
-104 -35 -85 0
-47 104 53 0
-121 -26 -3 0
-13 -60 70 0
-104 146 -47 0
-55 31 -102 0
61 66 114 0
97 3 26 0
-139 -131 -107 0
-114 -20 141 0
-41 -99 -121 0
15 -110 -127 0
94 136 -74 0
-76 -7 -4 0
-105 -100 14 0
82 19 -58 0
63 -12 -134 0
37 63 30 0
14 92 136 0
-107 -117 68 0
-136 36 75 0
80 -130 -92 0
49 72 -62 0
51 11 16 0
-10 27 57 0
-42 141 61 0
54 87 -88 0
31 -115 55 0
-39 -95 40 0
-141 -48 110 0
83 -21 140 0
119 77 -3 0
-21 -78 127 0
-37 57 -92 0
-83 -113 -146 0
-72 113 136 0
103 -133 64 0
-102 -150 100 0
-100 -139 40 0
117 73 6 0
76 -6 -109 0
22 86 21 0
-7 -37 25 0
57 126 134 0
86 -35 127 0
-12 -106 -90 0
-119 -139 -7 0
-108 -38 63 0
43 -83 53 0
-16 121 79 0
46 16 -118 0
81 28 51 0
121 -131 58 0
-80 141 123 0
88 141 24 0
-35 -99 -136 0
-15 -61 3 0
64 -108 41 0
-133 34 -69 0
-46 -1 -53 0
-22 -91 -70 0
-120 22 -140 0
-107 50 24 0
106 -135 127 0
-80 -104 -20 0
-18 93 20 0
119 32 -114 0
61 -76 -145 0
-53 -39 -75 0
-87 101 143 0
-29 -85 -80 0
85 115 98 0
46 -47 -50 0
24 -26 59 0
-19 88 110 0
38 99 124 0
-103 -82 63 0
85 49 -88 0
-53 -131 -86 0
-41 -65 138 0
-129 132 -37 0
-51 146 7 0
63 123 148 0
-93 69 -119 0
-62 146 -140 0
44 -86 38 0
94 62 -147 0
20 -117 -9 0
-36 -79 -98 0
41 52 106 0
146 104 45 0
-86 -14 10 0
128 -27 -121 0
145 -105 -73 0
-105 -112 -31 0
135 134 -111 0
-76 -111 97 0
-18 63 -32 0
-14 122 27 0
-102 -61 -18 0
-95 140 -108 0
-108 146 -32 0
-32 138 148 0
77 7 84 0
136 -102 37 0
8 117 -81 0
121 -53 -52 0
-51 81 -91 0
-144 52 -137 0
-13 28 -79 0
-108 -35 86 0
-21 44 -58 0
-69 47 61 0
135 30 -133 0
-58 71 -34 0
-113 136 -19 0
73 -138 65 0
49 -63 46 0
-39 -9 119 0
128 -16 -47 0
-83 -124 -9 0
-134 -137 45 0
-112 61 -113 0
-61 -67 -126 0
-67 -10 -52 0
-47 -84 -39 0
-129 114 68 0
-46 -146 -140 0
14 80 -109 0
135 -68 128 0
66 -64 -41 0
117 16 81 0
-11 -33 126 0
117 134 -11 0
24 101 143 0
9 -59 76 0
119 23 -59 0
56 -11 42 0
88 146 -46 0
98 97 13 0
141 42 123 0
79 -121 115 0
125 53 -139 0
-93 -71 -5 0
146 56 -69 0
-93 -36 62 0
83 -99 116 0
133 15 78 0
39 132 33 0
-140 35 -133 0
-97 -38 53 0
-35 99 133 0
89 56 -36 0
-145 3 -77 0
-143 -91 32 0
67 24 110 0
-85 73 -128 0
52 -122 -43 0
88 109 -39 0
79 -6 -101 0
70 -14 97 0
84 65 -19 0
-145 -77 -68 0
99 -88 93 0
20 13 139 0
-119 116 -98 0
130 70 80 0
50 70 -59 0
140 101 -1 0
-141 -21 -144 0
-68 89 -27 0
-102 41 -50 0
126 145 -76 0
-137 128 -61 0
-132 -33 -17 0
-80 -29 116 0
106 124 -14 0
-101 65 95 0
-53 145 -34 0
69 -42 33 0
-48 -4 -121 0
35 -69 70 0
-36 13 41 0
-74 92 138 0
7 139 124 0
-73 58 101 0
-148 -100 56 0
-45 28 143 0
-31 39 -83 0
71 103 83 0
67 144 -14 0
21 2 -47 0
105 -124 9 0
-15 -56 141 0
-49 75 -64 0
-13 -46 -7 0
-70 92 -7 0
-3 54 -17 0
63 -127 -103 0
-26 124 -103 0
7 3 -148 0
-130 71 94 0
18 83 25 0
13 34 140 0
40 37 96 0
129 -14 -104 0
53 -6 45 0
-83 111 122 0
-46 -70 18 0
-47 92 -135 0
-97 15 55 0
-109 130 -146 0
117 112 120 0
-139 147 -11 0
-115 -73 12 0
-120 85 -66 0
-142 103 -14 0
126 -29 -60 0
-37 -30 27 0
-10 88 65 0
4 -110 51 0
-28 143 113 0
-128 15 -141 0
94 -46 -26 0
57 -74 31 0
120 -126 -19 0
-81 51 144 0
-87 81 72 0
33 44 149 0
89 -92 -79 0
93 80 105 0
96 -105 -72 0
89 -132 107 0
74 21 117 0
-106 57 115 0
150 -113 -69 0
63 -4 -106 0
100 -108 -72 0
27 140 -26 0
-5 -96 8 0
6 40 -121 0
-123 -16 57 0
-59 139 29 0
-103 56 133 0
37 -132 102 0
65 122 31 0
94 -7 -28 0
-29 -25 78 0
-61 34 23 0
63 -64 -106 0
44 -143 27 0
-129 -40 37 0
31 -106 3 0
-97 41 76 0
77 140 12 0
138 29 -108 0
-144 -36 146 0
77 69 -67 0
99 92 111 0
-136 -16 42 0
58 26 -96 0
-134 135 -125 0
-27 2 -92 0
-95 -78 54 0
-128 31 -133 0
-55 -65 -70 0
96 -103 23 0
58 65 85 0
-74 73 15 0
-22 -142 36 0
55 -149 140 0
20 -45 22 0
115 -112 -31 0
-30 -92 141 0
144 30 55 0
32 40 71 0
97 -52 127 0
-124 27 -141 0
-52 -4 89 0
-134 -100 116 0
-150 38 124 0
126 60 67 0
17 66 -97 0
-17 -144 47 0
125 -31 -60 0
-129 39 9 0
126 -86 39 0
-78 26 64 0
137 89 31 0
95 -84 -94 0
68 29 -64 0
-76 74 65 0
-8 73 72 0
-140 -34 -23 0
67 -79 -14 0
139 60 -124 0
-130 -70 145 0
-141 -29 148 0
-1 27 145 0
-91 -37 16 0
-106 -147 -37 0
134 -139 20 0
-91 128 51 0
50 -21 -125 0
23 35 77 0
-39 -139 40 0
-126 147 -81 0
9 28 -29 0
-107 -9 -39 0
149 -22 1 0
102 60 105 0
-62 -68 13 0
-91 117 61 0
55 -65 116 0
-61 -67 134 0
80 60 -17 0
9 -64 -139 0
114 -56 12 0
-92 18 19 0
60 87 -53 0
18 122 -4 0
109 41 37 0
58 82 -88 0
82 -11 50 0
-117 -95 96 0
-19 48 89 0
-150 -32 -71 0
135 68 24 0
80 129 -48 0
76 -124 118 0
-10 -49 38 0
150 103 140 0
55 -6 7 0
17 120 7 0
-11 -87 -67 0
65 -82 -43 0
-107 110 -139 0
126 -60 -42 0
-44 81 -61 0
-87 73 25 0
-29 -128 -132 0
-103 -69 128 0
-24 82 128 0
7 72 -138 0
-61 150 -103 0
130 27 110 0
124 -39 -75 0
-51 -56 -115 0
-64 71 -77 0
-78 63 -12 0
-88 -121 103 0
-41 -29 67 0
-48 -67 33 0
-105 -101 -1 0
-126 58 -99 0
-128 -59 -60 0
133 -111 81 0
69 27 85 0
-137 -149 78 0
-72 56 134 0
-138 -13 122 0
149 94 62 0
-91 -76 -135 0
-56 -105 61 0
-110 -111 -122 0
129 65 139 0
47 -15 -39 0
-150 -82 -69 0
-117 -16 111 0
65 15 -141 0
113 -33 109 0
62 -105 12 0
147 122 104 0
-120 -28 54 0
81 31 -86 0
-131 -148 106 0
9 24 69 0
116 112 -81 0
-23 -117 -122 0
-130 103 -20 0
-117 112 -55 0
-139 88 145 0
-110 67 24 0
51 112 16 0
-101 -18 87 0
144 105 -140 0
-150 84 -131 0
136 -127 -84 0
-125 75 108 0
-119 -136 -143 0
91 111 -14 0
-94 56 -98 0
132 -7 139 0
80 64 53 0
7 49 -68 0
-75 85 55 0
56 -122 -81 0
73 130 -92 0
-39 88 113 0
-44 122 -91 0
82 58 -123 0
-13 17 140 0
-91 126 137 0
6 -46 -142 0
-83 14 120 0
64 93 1 0
5 94 80 0
-42 25 -121 0
114 129 -63 0
-120 -114 -136 0
58 73 -6 0
-11 117 -74 0
-143 119 96 0
-142 -59 -149 0
-20 29 64 0
-143 -80 -10 0
20 137 29 0
-29 -115 -144 0
-140 15 -150 0
-63 -128 -56 0
148 -5 4 0
19 -63 -80 0
26 -48 68 0
43 -15 89 0
-52 -8 -42 0
-67 -48 -82 0
12 -145 78 0
-48 107 -127 0
70 52 22 0
-75 31 99 0
106 126 99 0
93 96 -143 0
47 -53 -129 0
62 115 -49 0
9 34 49 0
-97 42 -94 0
-38 -71 42 0
-98 38 23 0
10 29 59 0
52 19 -134 0
97 -105 39 0
2 -122 79 0
-86 -3 109 0
139 -74 -34 0
28 11 -68 0
-26 48 101 0
-143 31 -107 0
-148 -72 -60 0
37 67 -104 0
16 112 -149 0
-50 -69 115 0
-48 94 -130 0
-51 -98 143 0
1 -85 71 0
111 60 124 0
-108 69 -82 0
-119 -138 -39 0
33 -42 -10 0
-50 147 92 0
-10 36 118 0
117 -96 29 0
-26 8 42 0
24 -89 31 0
110 142 -150 0
-84 -74 114 0
-3 113 -122 0
41 131 -69 0
25 -75 -19 0
-101 -124 102 0
-31 -12 -103 0
114 -39 -146 0
114 -76 80 0
3 1 44 0
17 146 -40 0
14 73 -13 0
-28 142 10 0
53 12 -46 0
-54 -19 -108 0
-83 -16 107 0
-130 -62 -36 0
-73 64 44 0
-68 -63 -87 0
58 119 17 0
108 128 125 0
-64 -33 -24 0
-111 105 61 0
94 32 -65 0
-40 74 99 0
-146 26 45 0
-30 37 136 0
-126 58 25 0
-52 75 109 0
54 146 84 0
22 142 4 0
82 9 -133 0
93 -148 32 0
143 25 129 0
-82 -148 -76 0
-10 -122 34 0
-136 -106 -132 0
-114 -24 -38 0
80 30 -113 0
-85 27 -86 0
24 -55 -18 0
-47 106 85 0
66 16 120 0
137 -139 149 0
-98 -41 122 0
-127 150 54 0
-24 -2 122 0
73 138 90 0
-95 -117 130 0
146 38 40 0
-9 -141 21 0
90 8 21 0
36 16 98 0
-114 -60 48 0
49 97 -81 0
12 116 -126 0
-68 -17 -77 0
-44 85 52 0
114 -20 -82 0
131 -9 -13 0
103 20 -107 0
88 -113 59 0
70 -140 75 0
5 117 12 0
70 14 2 0
-8 124 6 0
138 135 -42 0
143 -127 -25 0
-37 -77 -119 0
-133 -14 138 0
122 -34 -97 0
70 -37 -126 0
111 -2 -85 0
-71 -21 105 0
136 20 9 0
149 98 119 0
129 29 47 0
-112 -35 -80 0
136 -59 63 0
-90 76 -80 0
11 -61 -26 0
68 141 -27 0
-149 -121 -33 0
-70 135 84 0
-55 45 58 0
-105 -86 -146 0
16 -12 101 0
-150 -115 52 0
18 97 104 0
141 28 41 0
