c satisfiable-easy: planted all-true model, 40 vars
p cnf 40 120
9 37 5 0
17 8 32 0
29 31 25 0
14 7 32 0
2 25 28 0
39 1 29 0
18 15 38 0
7 21 2 0
2 35 1 0
25 14 28 0
2 34 15 0
29 32 36 0
15 23 30 0
19 2 27 0
36 7 12 0
19 8 22 0
33 28 13 0
20 19 38 0
32 33 26 0
38 3 31 0
16 26 27 0
12 24 36 0
24 6 29 0
33 7 11 0
34 26 24 0
32 2 31 0
3 20 40 0
38 26 11 0
11 33 15 0
1 13 35 0
36 15 26 0
33 23 37 0
23 30 18 0
36 39 1 0
25 33 9 0
34 36 14 0
28 4 31 0
24 37 36 0
13 33 27 0
32 23 27 0
23 1 35 0
35 40 22 0
30 39 2 0
15 12 36 0
38 12 6 0
36 17 3 0
5 6 2 0
29 1 18 0
16 18 8 0
40 12 23 0
19 5 11 0
11 17 34 0
11 18 19 0
30 21 32 0
31 8 2 0
20 25 22 0
27 13 17 0
7 17 33 0
14 39 28 0
2 15 26 0
10 3 11 0
29 33 28 0
35 15 34 0
29 15 34 0
2 26 37 0
21 28 4 0
20 9 14 0
4 20 5 0
5 20 11 0
27 37 17 0
9 1 36 0
3 38 14 0
37 30 11 0
40 33 3 0
25 13 23 0
7 14 37 0
28 38 13 0
32 7 25 0
19 33 32 0
2 21 40 0
26 19 2 0
11 13 21 0
37 9 22 0
28 14 18 0
7 25 36 0
23 35 32 0
35 16 5 0
3 6 9 0
11 35 14 0
18 22 39 0
33 17 24 0
22 8 19 0
16 39 32 0
9 38 36 0
7 21 3 0
27 5 25 0
10 9 22 0
8 40 38 0
25 5 37 0
36 15 37 0
6 18 24 0
19 37 35 0
8 30 18 0
7 3 19 0
1 40 6 0
27 8 3 0
13 16 38 0
27 11 8 0
29 11 16 0
11 7 28 0
25 35 19 0
36 17 31 0
21 7 14 0
21 3 2 0
1 19 39 0
21 29 26 0
21 26 5 0
5 21 39 0
30 8 17 0
14 40 35 0
